
;this file is automatically generated: Tue Oct 27 10:35:00 CST 2020

;declarations generated

(declare-fun oclExcludes ( Int Int) Bool)
(declare-fun Cardinality ( Int) Int)
(declare-fun type_ece875aa_5342_4c51_824b_d9e8effb3cbc_Class8 ( Int) Bool)
(declare-fun type_ece875aa_5342_4c51_824b_d9e8effb3cbc_Class19 ( Int) Bool)
(declare-fun type_ece875aa_5342_4c51_824b_d9e8effb3cbc_Class16 ( Int) Bool)
(declare-fun type_ece875aa_5342_4c51_824b_d9e8effb3cbc_Class25 ( Int) Bool)
(declare-fun type_ece875aa_5342_4c51_824b_d9e8effb3cbc_Class24 ( Int) Bool)
(declare-fun oclSelect ( Int Bool) Int)
(declare-fun class25_Class25IntAttr2 ( Int) Int)
(declare-fun obj_ba2cb005_4523_4f2b_a839_909babaa4a09 ( Int) Int)
(declare-fun Enum0 ( Int) Int)
(declare-fun Enum1 ( Int) Int)
(declare-fun Enum2 ( Int) Int)
(declare-fun container_ ( Int) Int)
(declare-fun class25_Class25BoolAttr0 ( Int) Bool)
(declare-fun class25_Class25BoolAttr1 ( Int) Bool)
(declare-fun oclIncludes ( Int Int) Bool)
(declare-fun ObjAt ( Int Int) Int)

;formula(s) generated
(assert (forall ((p Int)) (=> ( type_ece875aa_5342_4c51_824b_d9e8effb3cbc_Class25 p )  (and (>= ( Enum2 ( obj_ba2cb005_4523_4f2b_a839_909babaa4a09 p )  )  0) (<= ( Enum2 ( obj_ba2cb005_4523_4f2b_a839_909babaa4a09 p )  )  6)))))
(assert (forall ((p Int)) (=> ( type_ece875aa_5342_4c51_824b_d9e8effb3cbc_Class25 p )  (and (>= ( Enum2 ( obj_ba2cb005_4523_4f2b_a839_909babaa4a09 p )  )  0) (<= ( Enum2 ( obj_ba2cb005_4523_4f2b_a839_909babaa4a09 p )  )  6)))))
(assert (! (or (and (forall ((v Int)) (=> (and (and (and (and ( type_ece875aa_5342_4c51_824b_d9e8effb3cbc_Class25 v )  ( type_ece875aa_5342_4c51_824b_d9e8effb3cbc_Class24 v ) ) ( type_ece875aa_5342_4c51_824b_d9e8effb3cbc_Class16 v ) ) ( type_ece875aa_5342_4c51_824b_d9e8effb3cbc_Class8 v ) ) ( type_ece875aa_5342_4c51_824b_d9e8effb3cbc_Class19 v ) ) ( class25_Class25BoolAttr0 ( obj_ba2cb005_4523_4f2b_a839_909babaa4a09 v )  ) )) (forall ((v Int)) (=> (and (and (and (and ( type_ece875aa_5342_4c51_824b_d9e8effb3cbc_Class25 v )  ( type_ece875aa_5342_4c51_824b_d9e8effb3cbc_Class24 v ) ) ( type_ece875aa_5342_4c51_824b_d9e8effb3cbc_Class16 v ) ) ( type_ece875aa_5342_4c51_824b_d9e8effb3cbc_Class8 v ) ) ( type_ece875aa_5342_4c51_824b_d9e8effb3cbc_Class19 v ) ) ( class25_Class25BoolAttr1 ( obj_ba2cb005_4523_4f2b_a839_909babaa4a09 v )  ) ))) (and (forall ((v Int)) (=> (and (and (and (and ( type_ece875aa_5342_4c51_824b_d9e8effb3cbc_Class25 v )  ( type_ece875aa_5342_4c51_824b_d9e8effb3cbc_Class24 v ) ) ( type_ece875aa_5342_4c51_824b_d9e8effb3cbc_Class16 v ) ) ( type_ece875aa_5342_4c51_824b_d9e8effb3cbc_Class8 v ) ) ( type_ece875aa_5342_4c51_824b_d9e8effb3cbc_Class19 v ) ) (= ( class25_Class25IntAttr2 ( obj_ba2cb005_4523_4f2b_a839_909babaa4a09 v )  )  17))) (forall ((v Int)) (=> (and (and (and (and ( type_ece875aa_5342_4c51_824b_d9e8effb3cbc_Class25 v )  ( type_ece875aa_5342_4c51_824b_d9e8effb3cbc_Class24 v ) ) ( type_ece875aa_5342_4c51_824b_d9e8effb3cbc_Class16 v ) ) ( type_ece875aa_5342_4c51_824b_d9e8effb3cbc_Class8 v ) ) ( type_ece875aa_5342_4c51_824b_d9e8effb3cbc_Class19 v ) ) (not ( class25_Class25BoolAttr0 ( obj_ba2cb005_4523_4f2b_a839_909babaa4a09 v )  )  ))))):named l0))
(assert (! (forall ((v Int)) (=> (and (and (and (and ( type_ece875aa_5342_4c51_824b_d9e8effb3cbc_Class25 v )  ( type_ece875aa_5342_4c51_824b_d9e8effb3cbc_Class24 v ) ) ( type_ece875aa_5342_4c51_824b_d9e8effb3cbc_Class16 v ) ) ( type_ece875aa_5342_4c51_824b_d9e8effb3cbc_Class8 v ) ) ( type_ece875aa_5342_4c51_824b_d9e8effb3cbc_Class19 v ) ) (or (= ( Enum2 ( obj_ba2cb005_4523_4f2b_a839_909babaa4a09 v )  )  2) (or (forall ((v Int)) (=> (and (and (and (and ( type_ece875aa_5342_4c51_824b_d9e8effb3cbc_Class25 v )  ( type_ece875aa_5342_4c51_824b_d9e8effb3cbc_Class24 v ) ) ( type_ece875aa_5342_4c51_824b_d9e8effb3cbc_Class16 v ) ) ( type_ece875aa_5342_4c51_824b_d9e8effb3cbc_Class8 v ) ) ( type_ece875aa_5342_4c51_824b_d9e8effb3cbc_Class19 v ) ) (not (= ( Enum2 ( obj_ba2cb005_4523_4f2b_a839_909babaa4a09 v )  )  1) ))) (forall ((v Int)) (=> (and (and (and (and ( type_ece875aa_5342_4c51_824b_d9e8effb3cbc_Class25 v )  ( type_ece875aa_5342_4c51_824b_d9e8effb3cbc_Class24 v ) ) ( type_ece875aa_5342_4c51_824b_d9e8effb3cbc_Class16 v ) ) ( type_ece875aa_5342_4c51_824b_d9e8effb3cbc_Class8 v ) ) ( type_ece875aa_5342_4c51_824b_d9e8effb3cbc_Class19 v ) ) (<= ( class25_Class25IntAttr2 ( obj_ba2cb005_4523_4f2b_a839_909babaa4a09 v )  )  16))))))):named l1))
(assert (exists ((o Int)) (and (and (and (and ( type_ece875aa_5342_4c51_824b_d9e8effb3cbc_Class25 ( obj_ba2cb005_4523_4f2b_a839_909babaa4a09 o )  )  ( type_ece875aa_5342_4c51_824b_d9e8effb3cbc_Class24 ( obj_ba2cb005_4523_4f2b_a839_909babaa4a09 o )  ) ) ( type_ece875aa_5342_4c51_824b_d9e8effb3cbc_Class16 ( obj_ba2cb005_4523_4f2b_a839_909babaa4a09 o )  ) ) ( type_ece875aa_5342_4c51_824b_d9e8effb3cbc_Class8 ( obj_ba2cb005_4523_4f2b_a839_909babaa4a09 o )  ) ) ( type_ece875aa_5342_4c51_824b_d9e8effb3cbc_Class19 ( obj_ba2cb005_4523_4f2b_a839_909babaa4a09 o )  ) )))

 ;end of formula 